[1, 4, 5, 6, 10, 8, 2, 9, 3, 7, 12, 13, 11, 14, 23, 24, 21, 19, 20, 19, 21, 23, 25, 26, 19, 30, 28, 28, 32, 33, 31, 30, 29, 36, 36, 37, 41, 40, 38, 39, 37, 38, 40, 40, 46, 46, 47, 47, 48, 41, 51, 44, 43, 42, 55, 56, 57, 58, 59, 62, 61, 62, 63, 65, 68, 68, 68, 69, 67, 70, 71, 71, 72, 70, 66, 70, 72, 77, 69, 84, 83, 87, 85, 86, 84, 82, 89, 83, 88, 90, 89, 92, 94, 93, 95, 94, 95, 98, 99, 99, 102, 100, 103, 103, 101, 98, 107, 107, 107, 102, 92, 113, 112, 114, 115, 116, 118, 117, 121, 120, 122, 122, 124, 123, 127, 125, 126, 128, 131, 130, 129, 130, 130, 135, 136, 135, 136, 140, 140, 141, 139, 142, 145, 146, 144, 147, 141, 159, 157, 151, 152, 156, 146, 143, 145, 158, 156, 157, 180, 187, 186, 163, 164, 165, 167, 165, 168, 166, 170, 169, 169, 172, 175, 178, 181, 180, 179, 183, 183, 182, 181, 184, 180, 179, 188, 184, 185, 187, 189, 189, 195, 194, 194, 193, 197, 196, 197, 198, 199, 200, 202, 203, 203, 204, 205, 211, 208, 209, 211, 207, 212, 210, 207, 212, 208, 218, 217, 217, 215, 222, 224, 225, 223, 222, 221, 226, 227, 228, 230, 234, 234, 232, 234, 236, 233, 235, 238, 237, 237, 232, 239, 245, 244, 245, 243, 247, 246, 254, 249, 248, 257, 258, 253, 254, 259, 261, 272, 259, 261, 258, 260, 256, 258, 269, 268, 266, 265, 270, 264, 267, 269, 272, 273, 278, 276, 277, 275, 274, 279, 280]
[1, 3, 5, 6, 12, 18, 18, 18, 19, 25, 27, 27, 28, 38, 39, 39, 39, 41, 42, 43, 45, 45, 46, 46, 47, 50, 55, 56, 58, 60, 61, 61, 64, 65, 66, 70, 70, 71, 71, 84, 85, 87, 89, 91, 91, 93, 93, 97, 97, 98, 98, 100, 102, 102, 111, 112, 113, 114, 116, 117, 122, 123, 124, 126, 127, 128, 130, 138, 144, 144, 151, 155, 155, 156, 156, 162, 163, 166, 169, 171, 177, 178, 178, 179, 179, 179, 180, 180, 181, 185, 186, 186, 187, 192, 193, 193, 194, 198, 206, 206, 207, 207, 211, 211, 214, 217, 222, 223, 225, 229, 231, 231, 233, 233, 233, 234, 244, 244, 252, 253, 253, 255, 257, 257, 257, 258, 258, 259, 263, 264, 272, 273, 276, 277, 278, 281, 282, 284, 287, 290, 298, 299, 299, 303, 306, 306, 308, 308, 310, 322, 325, 325, 326, 329, 335, 336, 339, 341, 343, 344, 345, 347, 347, 348, 348, 348, 350, 350, 355, 363, 364, 367, 367, 370, 370, 377, 377, 379, 380, 380, 381, 381, 391, 394, 398, 400, 400, 406, 407, 409, 413, 413, 414, 414, 417, 418, 418, 420, 421, 434, 434, 435, 435, 441, 442, 443, 443, 444, 445, 450, 456, 457, 457, 458, 458, 458, 459, 459, 460, 461, 461, 463, 466, 467, 467, 472, 472, 473, 474, 477, 478, 485, 485, 490, 490, 493, 495, 495, 499, 500, 500, 502, 503, 505, 508, 510, 510, 511, 513, 515, 515, 517, 522, 525, 526, 527, 531, 535, 538, 542, 544, 545, 546, 548, 552, 553, 554, 555, 557, 559, 561, 562, 564, 565, 566, 567, 569, 576, 576, 576, 581, 586, 588, 589, 594, 594, 595, 595, 596, 597, 597, 597, 599, 600, 601, 605, 613, 614, 615, 616, 618, 619, 619, 620, 622, 627, 627, 627, 634, 639, 640, 640, 642, 643, 644, 645, 647, 650, 656, 656, 657, 658, 659, 659, 664, 664, 664, 669, 671, 673, 674, 677, 678, 680, 681, 683, 685, 687, 687, 687, 688, 692, 692, 693, 693, 698, 698, 699, 701, 703, 703, 714, 714, 715, 721, 724, 725, 727, 735, 737, 737, 737, 738, 738, 739, 744, 744, 746, 746, 752, 753, 760, 760, 765, 765, 766, 767, 769, 769, 774, 774, 780, 781, 782, 783, 785, 787, 789, 789, 791, 791, 791, 792, 800, 802, 802, 805, 806, 811, 811, 813, 816, 816, 817, 818, 818, 823, 824, 826, 826, 827, 829, 829, 831, 832, 833, 835, 836, 837, 841, 842, 843, 845, 848, 849, 850, 859, 859, 860, 861, 862, 866, 866, 868, 872, 872, 875, 879, 882, 882, 884, 887, 892, 893, 897, 899, 902, 904, 904, 904, 905, 905, 913, 918, 920, 920, 922, 923, 925, 925, 930, 930, 943, 943, 943, 948, 950, 954, 957, 958, 958, 961, 962, 965, 966, 966, 966, 971, 971, 972, 972, 975, 976, 976, 977, 977, 978, 980, 983, 987, 993, 993, 994, 999, 1001, 1001, 1004, 1005, 1005, 1008, 1015, 1015, 1016, 1016, 1016, 1017, 1017, 1020, 1020, 1021, 1024, 1030, 1030, 1031, 1034, 1039, 1039, 1040, 1043, 1043, 1045, 1047, 1047, 1048, 1048, 1051, 1057, 1058, 1058, 1059, 1060, 1061, 1063, 1064, 1068, 1068, 1069, 1073, 1073, 1074, 1075, 1079, 1084, 1085, 1090, 1090, 1096, 1097, 1097, 1100, 1102, 1103, 1105, 1105, 1108, 1108, 1111, 1112, 1113, 1115, 1116, 1118, 1121, 1123, 1124, 1125, 1127, 1128, 1129, 1134, 1134, 1134, 1135, 1136, 1136, 1138, 1138, 1144, 1145, 1145, 1147, 1148, 1151, 1151, 1152, 1152, 1153, 1153, 1155, 1155, 1155, 1156, 1156, 1157, 1166, 1171, 1172, 1174, 1177, 1177, 1178, 1183, 1183, 1183, 1184, 1184, 1186, 1186, 1187, 1187, 1192, 1198, 1198, 1199, 1199, 1202, 1204, 1204, 1205, 1209, 1209, 1210, 1210, 1213, 1213, 1215, 1216, 1217, 1217, 1218, 1218, 1227, 1228, 1230, 1231, 1232, 1235, 1237, 1237, 1238, 1240, 1241, 1243, 1246, 1254, 1259, 1260, 1260, 1262, 1266, 1272, 1272, 1273, 1278, 1280, 1280, 1281, 1282, 1284, 1284, 1294, 1294, 1295, 1295, 1295, 1296, 1296, 1298, 1298, 1299, 1299, 1301, 1302, 1302, 1308, 1309, 1309, 1311, 1314, 1315, 1317, 1319, 1320, 1322, 1322, 1324, 1325, 1327, 1327, 1332, 1332, 1333, 1336, 1337, 1337, 1339, 1340, 1342, 1347, 1347, 1348, 1349, 1349, 1349, 1351, 1353, 1359, 1362, 1369, 1369, 1372, 1373, 1373, 1373, 1376, 1376, 1380, 1381, 1385, 1388, 1391, 1392, 1394, 1395, 1397, 1399, 1405, 1406, 1408, 1413, 1413, 1413, 1414, 1419, 1420, 1423, 1425, 1426, 1427, 1431, 1431, 1433, 1434, 1434, 1434, 1435, 1435, 1442, 1449, 1451, 1452, 1453, 1457, 1460, 1461, 1463, 1463, 1471, 1476, 1479, 1480, 1482, 1483, 1483, 1487, 1494, 1495, 1497, 1497, 1501, 1501, 1501, 1506, 1508, 1510, 1511, 1517, 1518, 1519, 1520, 1521, 1541, 1550, 1550, 1551, 1551, 1553, 1559, 1559, 1562, 1563, 1563, 1564, 1575, 1575, 1576, 1577, 1577, 1580, 1581, 1581, 1583, 1583, 1589, 1592, 1599, 1601, 1601, 1602, 1602, 1609, 1615, 1619, 1621, 1624, 1627, 1628, 1628, 1628, 1631, 1631, 1632, 1633, 1639, 1639, 1640, 1643, 1647, 1648, 1648, 1650, 1653, 1653, 1655, 1655, 1659, 1661, 1662, 1668, 1670, 1671, 1675, 1676, 1677, 1680, 1682, 1683, 1684, 1686, 1687, 1697, 1699, 1702, 1704, 1710, 1710, 1711, 1711, 1714, 1714, 1716, 1717, 1720, 1720, 1724, 1728, 1729, 1730, 1732, 1734, 1736, 1738, 1739, 1741, 1741, 1741, 1743, 1743, 1743, 1745, 1745, 1755, 1757, 1757, 1758, 1759, 1762, 1762, 1763, 1765, 1765, 1767, 1767, 1768, 1768, 1772, 1772, 1774, 1776, 1776, 1780, 1780, 1780, 1786, 1789, 1793, 1794, 1795, 1795, 1799, 1800, 1801, 1809, 1809, 1813, 1813, 1815, 1817, 1830, 1830, 1832, 1839, 1843, 1851, 1852, 1852, 1854, 1854, 1855, 1857, 1857, 1858, 1860, 1860, 1862, 1862, 1867, 1867, 1869, 1870, 1870, 1871, 1876, 1876, 1877, 1881, 1881, 1882, 1883, 1884, 1884, 1890, 1890, 1891, 1896, 1899, 1905, 1905, 1911, 1918, 1918, 1920, 1921, 1929, 1930, 1938, 1941, 1942, 1942, 1943, 1945, 1945, 1946, 1948, 1952, 1953, 1954, 1955, 1958, 1961, 1962, 1964, 1971, 1971, 1971, 1973, 1973, 1975, 1975, 1976, 1982, 1982, 1983, 1985, 1989, 1989, 1990, 1990, 1991, 1992, 1992, 1992, 1993, 1993, 1994, 2000, 2007, 2008, 2010, 2011, 2013, 2014, 2014, 2019, 2020, 2020, 2020, 2023, 2023, 2024, 2024, 2036, 2036, 2038, 2042, 2047, 2047, 2050, 2050, 2052, 2053, 2054, 2054, 2055, 2055, 2059, 2059, 2059, 2064, 2065, 2066, 2069, 2072, 2075, 2077, 2078, 2083, 2092, 2092, 2093, 2093, 2094, 2095, 2096, 2097, 2097, 2110, 2111, 2116, 2117, 2117, 2118, 2119, 2120, 2124, 2130, 2131, 2131, 2132, 2132, 2132, 2134, 2146, 2146, 2151, 2156, 2160, 2160, 2161, 2162, 2167, 2169, 2169, 2175, 2176, 2179, 2180, 2186, 2186, 2186, 2187, 2189, 2189, 2195, 2196, 2197, 2197, 2205, 2211, 2211, 2213, 2213, 2216, 2219, 2225, 2227, 2231, 2232, 2235, 2236, 2237, 2238, 2243, 2252, 2252, 2254, 2254, 2257, 2260, 2271, 2271, 2271, 2272, 2272, 2273, 2277, 2277, 2278, 2278, 2279, 2282, 2288, 2290, 2294, 2296, 2299, 2299, 2299, 2302, 2302, 2303, 2303, 2315, 2315, 2316, 2317, 2318, 2319, 2325, 2325, 2330, 2330, 2332, 2334, 2334, 2338, 2338, 2338, 2343, 2344, 2346, 2349, 2351, 2353, 2353, 2355, 2358, 2361, 2361, 2361, 2362, 2367, 2367, 2371, 2371, 2372, 2372, 2376, 2376, 2388, 2388, 2389, 2390, 2394, 2395, 2396, 2396, 2397, 2401, 2406, 2409, 2411, 2411, 2411, 2412, 2412, 2417, 2418, 2418, 2419, 2424, 2425, 2425, 2426, 2429, 2430, 2431, 2433, 2434, 2434, 2435, 2436, 2438, 2438, 2440, 2441, 2443, 2443, 2446, 2448, 2448, 2449, 2452, 2455, 2463, 2463, 2468, 2468, 2474, 2475, 2478, 2479, 2480, 2485, 2485, 2487, 2488, 2489, 2489, 2489, 2490, 2490, 2495, 2496, 2499, 2500, 2500, 2503, 2503, 2504, 2505, 2508, 2509, 2512, 2513, 2514, 2521, 2522, 2529, 2529, 2529, 2533, 2533, 2535, 2536, 2538, 2538, 2539, 2540, 2540, 2541, 2546, 2546, 2548, 2548, 2549, 2551, 2551, 2552, 2556, 2556, 2557, 2557, 2561, 2565, 2567, 2568, 2578, 2578, 2578, 2580, 2580, 2580, 2581, 2581, 2582, 2582, 2587, 2596, 2597, 2599, 2599, 2600, 2604, 2604, 2609, 2609, 2610, 2612, 2612, 2617, 2617, 2617, 2623, 2627, 2628, 2630, 2631, 2632, 2632, 2633, 2634, 2637, 2639, 2646, 2646, 2653, 2654, 2657, 2661, 2667, 2667, 2673, 2674, 2675, 2675, 2679, 2679, 2685, 2689, 2689, 2690, 2690, 2690, 2691, 2691, 2692, 2693, 2693, 2694, 2694, 2704, 2704, 2705, 2713, 2713, 2714, 2717, 2717, 2719, 2725, 2728, 2731, 2732, 2732, 2733, 2735, 2736, 2738, 2740, 2747, 2747, 2748, 2749, 2754, 2759, 2767, 2769, 2769, 2774, 2775, 2776, 2778, 2779, 2779, 2780, 2782, 2782, 2784, 2786]
